bomb.12.tsp
NAME : GeneratedProblem
COMMENT : SVGCrosshatch
TYPE : TSP
DIMENSION : 7
EDGE_WEIGHT_TYPE : EUC_2D
NODE_COORD_SECTION
1 4500 11100
2 4600 11100
3 4700 11100
4 4800 11100
5 4900 11100
6 5000 11100
7 5300 11000
EOF
