bomb.12.out.txt
NAME : GeneratedProblem.1622.tour
COMMENT : Length = 1622
COMMENT : Found by LKH [Keld Helsgaun] Sat Nov 24 14:17:56 2018
TYPE : TOUR
DIMENSION : 7
TOUR_SECTION
1
2
3
4
5
6
7
-1
EOF
